NAME: rue_20_6
TYPE: TSP
DIMENSION: 20
EDGE_WEIGHT_TYPE: EUC_2D
NODE_COORD_SECTION
1 23 32
2 29 23
3 36 13
4 31 13
5 27 1
6 14 39
7 28 37
8 11 16
9 13 11
10 26 13
11 15 1
12 5 20
13 34 31
14 27 9
15 6 16
16 24 6
17 14 29
18 36 24
19 7 31
20 10 23

